c 
c G(k,n,p) graph
c graph gen seed     : 4892
c number of vertices : 60
c max number of edges: 900
c number of classes  : 2
c edge density       : 0.200000
c edge probability   : 0.400000
c data structure     : sparse
c
c           Graph Stats
c number of vertices  : 60
c nonisolated vertices: 60
c number of edges     : 353
c edge density        : 0.199435
c max degree          : 19
c avg degree          : 11.77
c min degree          : 4
p col 60 353
e 1 59
e 1 44
e 1 38
e 1 16
e 1 15
e 1 14
e 1 9
e 2 59
e 2 51
e 2 47
e 2 44
e 2 35
e 2 28
e 2 19
e 2 14
e 3 59
e 3 46
e 3 45
e 3 44
e 3 43
e 3 38
e 3 35
e 3 23
e 3 19
e 3 15
e 4 59
e 4 52
e 4 51
e 4 47
e 4 35
e 4 33
e 4 16
e 4 14
e 5 52
e 5 47
e 5 45
e 5 43
e 5 41
e 5 40
e 5 35
e 5 33
e 5 29
e 5 28
e 5 24
e 5 15
e 5 9
e 6 58
e 6 55
e 6 50
e 6 42
e 6 39
e 6 37
e 6 22
e 6 20
e 6 12
e 6 8
e 6 7
e 7 52
e 7 51
e 7 45
e 7 43
e 7 41
e 7 35
e 7 29
e 7 28
e 7 23
e 7 19
e 7 15
e 8 52
e 8 43
e 8 40
e 8 38
e 8 35
e 8 33
e 8 19
e 8 16
e 8 15
e 8 9
e 9 60
e 9 56
e 9 49
e 9 39
e 9 36
e 9 27
e 9 20
e 10 59
e 10 52
e 10 46
e 10 44
e 10 43
e 10 41
e 10 35
e 10 33
e 10 29
e 10 28
e 10 24
e 10 14
e 11 46
e 11 43
e 11 40
e 11 35
e 11 23
e 11 16
e 12 52
e 12 47
e 12 45
e 12 43
e 12 41
e 12 40
e 12 38
e 12 16
e 12 15
e 12 14
e 13 59
e 13 47
e 13 45
e 13 43
e 13 33
e 13 23
e 13 19
e 13 15
e 14 57
e 14 56
e 14 53
e 14 50
e 14 42
e 14 32
e 14 31
e 14 30
e 14 27
e 14 26
e 14 25
e 14 21
e 14 20
e 15 58
e 15 56
e 15 54
e 15 49
e 15 48
e 15 31
e 15 30
e 15 27
e 15 26
e 15 25
e 15 22
e 15 21
e 16 60
e 16 58
e 16 57
e 16 54
e 16 53
e 16 50
e 16 34
e 16 21
e 16 20
e 16 18
e 16 17
e 17 46
e 17 44
e 17 35
e 17 33
e 17 23
e 18 51
e 18 47
e 18 41
e 18 38
e 18 35
e 18 29
e 18 24
e 18 23
e 19 58
e 19 57
e 19 55
e 19 53
e 19 48
e 19 42
e 19 39
e 19 37
e 19 32
e 19 31
e 19 26
e 20 51
e 20 44
e 20 41
e 20 40
e 20 38
e 20 33
e 20 23
e 21 59
e 21 52
e 21 47
e 21 43
e 21 38
e 21 29
e 21 28
e 22 51
e 22 47
e 22 46
e 22 40
e 22 33
e 22 28
e 22 23
e 23 60
e 23 58
e 23 57
e 23 53
e 23 50
e 23 37
e 23 34
e 23 27
e 23 26
e 23 25
e 24 58
e 24 57
e 24 56
e 24 53
e 24 49
e 24 48
e 24 36
e 24 34
e 24 32
e 24 30
e 24 25
e 25 59
e 25 52
e 25 51
e 25 41
e 25 28
e 26 52
e 26 44
e 26 43
e 26 41
e 26 38
e 26 33
e 26 29
e 27 45
e 27 40
e 27 35
e 27 33
e 27 29
e 27 28
e 28 58
e 28 57
e 28 56
e 28 53
e 28 42
e 28 37
e 28 34
e 28 31
e 28 30
e 29 56
e 29 50
e 29 48
e 29 42
e 29 37
e 29 34
e 30 59
e 30 52
e 30 47
e 30 46
e 30 45
e 31 52
e 31 51
e 31 47
e 31 46
e 31 38
e 32 59
e 32 47
e 32 46
e 32 45
e 32 43
e 32 41
e 32 33
e 33 57
e 33 50
e 33 48
e 33 39
e 33 37
e 33 34
e 34 51
e 34 47
e 34 44
e 34 38
e 34 35
e 35 60
e 35 50
e 35 49
e 35 42
e 35 39
e 35 37
e 35 36
e 36 59
e 36 51
e 36 47
e 36 46
e 36 45
e 36 41
e 36 40
e 38 55
e 38 53
e 38 48
e 38 39
e 39 52
e 39 47
e 39 43
e 39 41
e 39 40
e 40 58
e 40 56
e 40 55
e 40 54
e 40 42
e 41 58
e 41 42
e 42 51
e 42 46
e 42 44
e 43 60
e 43 58
e 43 55
e 43 50
e 43 49
e 44 60
e 44 58
e 44 57
e 44 53
e 44 50
e 44 49
e 45 57
e 45 56
e 45 50
e 45 49
e 46 58
e 46 56
e 46 55
e 46 54
e 46 49
e 47 60
e 47 57
e 47 56
e 47 55
e 47 48
e 48 59
e 48 51
e 49 52
e 50 59
e 50 51
e 51 58
e 51 56
e 52 55
e 56 59
e 57 59
e 58 59
